kp_lp_files/pr152_n453_bounded-strongly-corr_01-kp.lp
MAXIMIZE
101 z0 + 202 z1 + 404 z2 + 202 z3 + 996 z4 + 1992 z5 + 3984 z6 + 467 z7 + 934 z8 + 1868 z9 + 790 z10 + 790 z11 + 713 z12 + 1426 z13 + 2852 z14 + 974 z15 + 974 z16 + 222 z17 + 444 z18 + 888 z19 + 666 z20 + 586 z21 + 1172 z22 + 1172 z23 + 923 z24 + 923 z25 + 563 z26 + 1126 z27 + 563 z28 + 689 z29 + 1378 z30 + 1378 z31 + 425 z32 + 850 z33 + 1700 z34 + 1275 z35 + 1100 z36 + 2200 z37 + 4400 z38 + 876 z39 + 1752 z40 + 2628 z41 + 223 z42 + 456 z43 + 405 z44 + 810 z45 + 1620 z46 + 405 z47 + 147 z48 + 294 z49 + 588 z50 + 745 z51 + 1490 z52 + 2980 z53 + 1490 z54 + 239 z55 + 347 z56 + 694 z57 + 1388 z58 + 1041 z59 + 311 z60 + 622 z61 + 1244 z62 + 933 z63 + 200 z64 + 400 z65 + 800 z66 + 200 z67 + 727 z68 + 1454 z69 + 1454 z70 + 860 z71 + 1720 z72 + 876 z73 + 1752 z74 + 3504 z75 + 575 z76 + 1150 z77 + 2300 z78 + 1037 z79 + 2074 z80 + 4148 z81 + 1037 z82 + 201 z83 + 402 z84 + 804 z85 + 402 z86 + 381 z87 + 762 z88 + 1524 z89 + 762 z90 + 851 z91 + 1702 z92 + 3404 z93 + 1702 z94 + 630 z95 + 1260 z96 + 2520 z97 + 340 z98 + 680 z99 + 680 z100 + 348 z101 + 696 z102 + 1044 z103 + 868 z104 + 131 z105 + 262 z106 + 131 z107 + 713 z108 + 1426 z109 + 2852 z110 + 713 z111 + 981 z112 + 1962 z113 + 1962 z114 + 467 z115 + 934 z116 + 1868 z117 + 467 z118 + 812 z119 + 510 z120 + 1020 z121 + 2040 z122 + 510 z123 + 257 z124 + 514 z125 + 1028 z126 + 771 z127 + 924 z128 + 342 z129 + 572 z130 + 1144 z131 + 1716 z132 + 822 z133 + 1644 z134 + 3288 z135 + 875 z136 + 875 z137 + 471 z138 + 942 z139 + 1884 z140 + 437 z141 + 874 z142 + 437 z143 + 985 z144 + 1970 z145 + 3940 z146 + 1970 z147 + 304 z148 + 608 z149 + 1216 z150 + 608 z151 + 694 z152 + 1388 z153 + 2776 z154 + 1388 z155 + 326 z156 + 652 z157 + 1304 z158 + 326 z159 + 652 z160 + 1021 z161 + 637 z162 + 1274 z163 + 2548 z164 + 212 z165 + 212 z166 + 1059 z167 + 2118 z168 + 3177 z169 + 492 z170 + 492 z171 + 809 z172 + 1618 z173 + 3236 z174 + 1040 z175 + 2080 z176 + 1043 z177 + 2086 z178 + 4172 z179 + 179 z180 + 179 z181 + 1022 z182 + 2044 z183 + 2044 z184 + 461 z185 + 1047 z186 + 2094 z187 + 1047 z188 + 961 z189 + 1922 z190 + 3844 z191 + 2883 z192 + 1037 z193 + 2074 z194 + 4148 z195 + 3111 z196 + 854 z197 + 1708 z198 + 2562 z199 + 972 z200 + 736 z201 + 736 z202 + 559 z203 + 1118 z204 + 2236 z205 + 1677 z206 + 490 z207 + 490 z208 + 241 z209 + 482 z210 + 723 z211 + 211 z212 + 422 z213 + 844 z214 + 633 z215 + 688 z216 + 1376 z217 + 688 z218 + 106 z219 + 106 z220 + 255 z221 + 510 z222 + 1020 z223 + 765 z224 + 823 z225 + 1646 z226 + 3292 z227 + 1646 z228 + 823 z229 + 1646 z230 + 3292 z231 + 2469 z232 + 767 z233 + 1534 z234 + 1534 z235 + 929 z236 + 1858 z237 + 3716 z238 + 929 z239 + 587 z240 + 1174 z241 + 1174 z242 + 690 z243 + 1380 z244 + 2760 z245 + 1380 z246 + 470 z247 + 940 z248 + 1880 z249 + 923 z250 + 1846 z251 + 3692 z252 + 923 z253 + 273 z254 + 546 z255 + 156 z256 + 1077 z257 + 2154 z258 + 3231 z259 + 781 z260 + 1562 z261 + 2343 z262 + 789 z263 + 1578 z264 + 3156 z265 + 789 z266 + 1033 z267 + 2066 z268 + 3099 z269 + 909 z270 + 1818 z271 + 687 z272 + 1374 z273 + 786 z274 + 1572 z275 + 786 z276 + 566 z277 + 456 z278 + 912 z279 + 912 z280 + 884 z281 + 884 z282 + 962 z283 + 1924 z284 + 3848 z285 + 2886 z286 + 323 z287 + 646 z288 + 1292 z289 + 969 z290 + 641 z291 + 1282 z292 + 2564 z293 + 161 z294 + 322 z295 + 516 z296 + 516 z297 + 162 z298 + 162 z299 + 305 z300 + 610 z301 + 252 z302 + 504 z303 + 1008 z304 + 504 z305 + 1013 z306 + 2026 z307 + 4052 z308 + 3039 z309 + 367 z310 + 734 z311 + 1468 z312 + 349 z313 + 698 z314 + 349 z315 + 287 z316 + 574 z317 + 1148 z318 + 861 z319 + 274 z320 + 548 z321 + 274 z322 + 1039 z323 + 1039 z324 + 619 z325 + 1238 z326 + 1238 z327 + 156 z328 + 312 z329 + 624 z330 + 312 z331 + 481 z332 + 962 z333 + 1924 z334 + 962 z335 + 651 z336 + 1302 z337 + 1302 z338 + 228 z339 + 456 z340 + 912 z341 + 912 z342 + 1824 z343 + 3648 z344 + 2736 z345 + 853 z346 + 1706 z347 + 3412 z348 + 1706 z349 + 644 z350 + 1288 z351 + 644 z352 + 784 z353 + 1568 z354 + 2352 z355 + 930 z356 + 1860 z357 + 1860 z358 + 825 z359 + 1650 z360 + 3300 z361 + 2475 z362 + 430 z363 + 860 z364 + 430 z365 + 215 z366 + 138 z367 + 276 z368 + 545 z369 + 1090 z370 + 1635 z371 + 719 z372 + 1438 z373 + 2876 z374 + 2157 z375 + 748 z376 + 996 z377 + 1992 z378 + 2988 z379 + 758 z380 + 1516 z381 + 3032 z382 + 406 z383 + 812 z384 + 1218 z385 + 906 z386 + 1812 z387 + 3624 z388 + 1812 z389 + 900 z390 + 1800 z391 + 712 z392 + 1424 z393 + 454 z394 + 400 z395 + 800 z396 + 1600 z397 + 800 z398 + 274 z399 + 548 z400 + 1096 z401 + 548 z402 + 851 z403 + 1702 z404 + 226 z405 + 226 z406 + 703 z407 + 703 z408 + 765 z409 + 309 z410 + 618 z411 + 1236 z412 + 408 z413 + 408 z414 + 816 z415 + 1632 z416 + 1224 z417 + 777 z418 + 1554 z419 + 3108 z420 + 2331 z421 + 963 z422 + 1926 z423 + 2889 z424 + 392 z425 + 392 z426 + 544 z427 + 1088 z428 + 2176 z429 + 544 z430 + 395 z431 + 513 z432 + 172 z433 + 344 z434 + 688 z435 + 172 z436 + 421 z437 + 842 z438 + 421 z439 + 1081 z440 + 2162 z441 + 1081 z442 + 897 z443 + 1794 z444 + 1794 z445 + 607 z446 + 1214 z447 + 2428 z448 + 1214 z449 + 815 z450 + 815 z451 + 612 z452
SUBJECT TO
1 z0 + 2 z1 + 4 z2 + 2 z3 + 896 z4 + 1792 z5 + 3584 z6 + 367 z7 + 734 z8 + 1468 z9 + 690 z10 + 690 z11 + 613 z12 + 1226 z13 + 2452 z14 + 874 z15 + 874 z16 + 122 z17 + 244 z18 + 488 z19 + 366 z20 + 486 z21 + 972 z22 + 972 z23 + 823 z24 + 823 z25 + 463 z26 + 926 z27 + 463 z28 + 589 z29 + 1178 z30 + 1178 z31 + 325 z32 + 650 z33 + 1300 z34 + 975 z35 + 1000 z36 + 2000 z37 + 4000 z38 + 776 z39 + 1552 z40 + 2328 z41 + 123 z42 + 356 z43 + 305 z44 + 610 z45 + 1220 z46 + 305 z47 + 47 z48 + 94 z49 + 188 z50 + 645 z51 + 1290 z52 + 2580 z53 + 1290 z54 + 139 z55 + 247 z56 + 494 z57 + 988 z58 + 741 z59 + 211 z60 + 422 z61 + 844 z62 + 633 z63 + 100 z64 + 200 z65 + 400 z66 + 100 z67 + 627 z68 + 1254 z69 + 1254 z70 + 760 z71 + 1520 z72 + 776 z73 + 1552 z74 + 3104 z75 + 475 z76 + 950 z77 + 1900 z78 + 937 z79 + 1874 z80 + 3748 z81 + 937 z82 + 101 z83 + 202 z84 + 404 z85 + 202 z86 + 281 z87 + 562 z88 + 1124 z89 + 562 z90 + 751 z91 + 1502 z92 + 3004 z93 + 1502 z94 + 530 z95 + 1060 z96 + 2120 z97 + 240 z98 + 480 z99 + 480 z100 + 248 z101 + 496 z102 + 744 z103 + 768 z104 + 31 z105 + 62 z106 + 31 z107 + 613 z108 + 1226 z109 + 2452 z110 + 613 z111 + 881 z112 + 1762 z113 + 1762 z114 + 367 z115 + 734 z116 + 1468 z117 + 367 z118 + 712 z119 + 410 z120 + 820 z121 + 1640 z122 + 410 z123 + 157 z124 + 314 z125 + 628 z126 + 471 z127 + 824 z128 + 242 z129 + 472 z130 + 944 z131 + 1416 z132 + 722 z133 + 1444 z134 + 2888 z135 + 775 z136 + 775 z137 + 371 z138 + 742 z139 + 1484 z140 + 337 z141 + 674 z142 + 337 z143 + 885 z144 + 1770 z145 + 3540 z146 + 1770 z147 + 204 z148 + 408 z149 + 816 z150 + 408 z151 + 594 z152 + 1188 z153 + 2376 z154 + 1188 z155 + 226 z156 + 452 z157 + 904 z158 + 226 z159 + 452 z160 + 921 z161 + 537 z162 + 1074 z163 + 2148 z164 + 112 z165 + 112 z166 + 959 z167 + 1918 z168 + 2877 z169 + 392 z170 + 392 z171 + 709 z172 + 1418 z173 + 2836 z174 + 940 z175 + 1880 z176 + 943 z177 + 1886 z178 + 3772 z179 + 79 z180 + 79 z181 + 922 z182 + 1844 z183 + 1844 z184 + 361 z185 + 947 z186 + 1894 z187 + 947 z188 + 861 z189 + 1722 z190 + 3444 z191 + 2583 z192 + 937 z193 + 1874 z194 + 3748 z195 + 2811 z196 + 754 z197 + 1508 z198 + 2262 z199 + 872 z200 + 636 z201 + 636 z202 + 459 z203 + 918 z204 + 1836 z205 + 1377 z206 + 390 z207 + 390 z208 + 141 z209 + 282 z210 + 423 z211 + 111 z212 + 222 z213 + 444 z214 + 333 z215 + 588 z216 + 1176 z217 + 588 z218 + 6 z219 + 6 z220 + 155 z221 + 310 z222 + 620 z223 + 465 z224 + 723 z225 + 1446 z226 + 2892 z227 + 1446 z228 + 723 z229 + 1446 z230 + 2892 z231 + 2169 z232 + 667 z233 + 1334 z234 + 1334 z235 + 829 z236 + 1658 z237 + 3316 z238 + 829 z239 + 487 z240 + 974 z241 + 974 z242 + 590 z243 + 1180 z244 + 2360 z245 + 1180 z246 + 370 z247 + 740 z248 + 1480 z249 + 823 z250 + 1646 z251 + 3292 z252 + 823 z253 + 173 z254 + 346 z255 + 56 z256 + 977 z257 + 1954 z258 + 2931 z259 + 681 z260 + 1362 z261 + 2043 z262 + 689 z263 + 1378 z264 + 2756 z265 + 689 z266 + 933 z267 + 1866 z268 + 2799 z269 + 809 z270 + 1618 z271 + 587 z272 + 1174 z273 + 686 z274 + 1372 z275 + 686 z276 + 466 z277 + 356 z278 + 712 z279 + 712 z280 + 784 z281 + 784 z282 + 862 z283 + 1724 z284 + 3448 z285 + 2586 z286 + 223 z287 + 446 z288 + 892 z289 + 669 z290 + 541 z291 + 1082 z292 + 2164 z293 + 61 z294 + 122 z295 + 416 z296 + 416 z297 + 62 z298 + 62 z299 + 205 z300 + 410 z301 + 152 z302 + 304 z303 + 608 z304 + 304 z305 + 913 z306 + 1826 z307 + 3652 z308 + 2739 z309 + 267 z310 + 534 z311 + 1068 z312 + 249 z313 + 498 z314 + 249 z315 + 187 z316 + 374 z317 + 748 z318 + 561 z319 + 174 z320 + 348 z321 + 174 z322 + 939 z323 + 939 z324 + 519 z325 + 1038 z326 + 1038 z327 + 56 z328 + 112 z329 + 224 z330 + 112 z331 + 381 z332 + 762 z333 + 1524 z334 + 762 z335 + 551 z336 + 1102 z337 + 1102 z338 + 128 z339 + 256 z340 + 512 z341 + 812 z342 + 1624 z343 + 3248 z344 + 2436 z345 + 753 z346 + 1506 z347 + 3012 z348 + 1506 z349 + 544 z350 + 1088 z351 + 544 z352 + 684 z353 + 1368 z354 + 2052 z355 + 830 z356 + 1660 z357 + 1660 z358 + 725 z359 + 1450 z360 + 2900 z361 + 2175 z362 + 330 z363 + 660 z364 + 330 z365 + 115 z366 + 38 z367 + 76 z368 + 445 z369 + 890 z370 + 1335 z371 + 619 z372 + 1238 z373 + 2476 z374 + 1857 z375 + 648 z376 + 896 z377 + 1792 z378 + 2688 z379 + 658 z380 + 1316 z381 + 2632 z382 + 306 z383 + 612 z384 + 918 z385 + 806 z386 + 1612 z387 + 3224 z388 + 1612 z389 + 800 z390 + 1600 z391 + 612 z392 + 1224 z393 + 354 z394 + 300 z395 + 600 z396 + 1200 z397 + 600 z398 + 174 z399 + 348 z400 + 696 z401 + 348 z402 + 751 z403 + 1502 z404 + 126 z405 + 126 z406 + 603 z407 + 603 z408 + 665 z409 + 209 z410 + 418 z411 + 836 z412 + 308 z413 + 308 z414 + 616 z415 + 1232 z416 + 924 z417 + 677 z418 + 1354 z419 + 2708 z420 + 2031 z421 + 863 z422 + 1726 z423 + 2589 z424 + 292 z425 + 292 z426 + 444 z427 + 888 z428 + 1776 z429 + 444 z430 + 295 z431 + 413 z432 + 72 z433 + 144 z434 + 288 z435 + 72 z436 + 321 z437 + 642 z438 + 321 z439 + 981 z440 + 1962 z441 + 981 z442 + 797 z443 + 1594 z444 + 1594 z445 + 507 z446 + 1014 z447 + 2028 z448 + 1014 z449 + 715 z450 + 715 z451 + 512 z452 <= 40592
BINARIES
z0
z1
z2
z3
z4
z5
z6
z7
z8
z9
z10
z11
z12
z13
z14
z15
z16
z17
z18
z19
z20
z21
z22
z23
z24
z25
z26
z27
z28
z29
z30
z31
z32
z33
z34
z35
z36
z37
z38
z39
z40
z41
z42
z43
z44
z45
z46
z47
z48
z49
z50
z51
z52
z53
z54
z55
z56
z57
z58
z59
z60
z61
z62
z63
z64
z65
z66
z67
z68
z69
z70
z71
z72
z73
z74
z75
z76
z77
z78
z79
z80
z81
z82
z83
z84
z85
z86
z87
z88
z89
z90
z91
z92
z93
z94
z95
z96
z97
z98
z99
z100
z101
z102
z103
z104
z105
z106
z107
z108
z109
z110
z111
z112
z113
z114
z115
z116
z117
z118
z119
z120
z121
z122
z123
z124
z125
z126
z127
z128
z129
z130
z131
z132
z133
z134
z135
z136
z137
z138
z139
z140
z141
z142
z143
z144
z145
z146
z147
z148
z149
z150
z151
z152
z153
z154
z155
z156
z157
z158
z159
z160
z161
z162
z163
z164
z165
z166
z167
z168
z169
z170
z171
z172
z173
z174
z175
z176
z177
z178
z179
z180
z181
z182
z183
z184
z185
z186
z187
z188
z189
z190
z191
z192
z193
z194
z195
z196
z197
z198
z199
z200
z201
z202
z203
z204
z205
z206
z207
z208
z209
z210
z211
z212
z213
z214
z215
z216
z217
z218
z219
z220
z221
z222
z223
z224
z225
z226
z227
z228
z229
z230
z231
z232
z233
z234
z235
z236
z237
z238
z239
z240
z241
z242
z243
z244
z245
z246
z247
z248
z249
z250
z251
z252
z253
z254
z255
z256
z257
z258
z259
z260
z261
z262
z263
z264
z265
z266
z267
z268
z269
z270
z271
z272
z273
z274
z275
z276
z277
z278
z279
z280
z281
z282
z283
z284
z285
z286
z287
z288
z289
z290
z291
z292
z293
z294
z295
z296
z297
z298
z299
z300
z301
z302
z303
z304
z305
z306
z307
z308
z309
z310
z311
z312
z313
z314
z315
z316
z317
z318
z319
z320
z321
z322
z323
z324
z325
z326
z327
z328
z329
z330
z331
z332
z333
z334
z335
z336
z337
z338
z339
z340
z341
z342
z343
z344
z345
z346
z347
z348
z349
z350
z351
z352
z353
z354
z355
z356
z357
z358
z359
z360
z361
z362
z363
z364
z365
z366
z367
z368
z369
z370
z371
z372
z373
z374
z375
z376
z377
z378
z379
z380
z381
z382
z383
z384
z385
z386
z387
z388
z389
z390
z391
z392
z393
z394
z395
z396
z397
z398
z399
z400
z401
z402
z403
z404
z405
z406
z407
z408
z409
z410
z411
z412
z413
z414
z415
z416
z417
z418
z419
z420
z421
z422
z423
z424
z425
z426
z427
z428
z429
z430
z431
z432
z433
z434
z435
z436
z437
z438
z439
z440
z441
z442
z443
z444
z445
z446
z447
z448
z449
z450
z451
z452
END