kp_sol_files/pr152_n453_bounded-strongly-corr_01-kp.sol
# Objective value = 66292
z0 1
z1 1
z2 1
z3 1
z4 0
z5 0
z6 0
z7 1
z8 0
z9 0
z10 0
z11 0
z12 0
z13 0
z14 0
z15 0
z16 0
z17 1
z18 1
z19 1
z20 1
z21 0
z22 0
z23 0
z24 0
z25 0
z26 0
z27 0
z28 0
z29 0
z30 0
z31 0
z32 0
z33 0
z34 0
z35 0
z36 0
z37 0
z38 0
z39 0
z40 0
z41 0
z42 1
z43 0
z44 0
z45 0
z46 0
z47 0
z48 1
z49 1
z50 1
z51 0
z52 0
z53 0
z54 0
z55 1
z56 1
z57 1
z58 1
z59 1
z60 1
z61 1
z62 1
z63 1
z64 1
z65 1
z66 1
z67 1
z68 0
z69 0
z70 0
z71 0
z72 0
z73 0
z74 0
z75 0
z76 0
z77 0
z78 0
z79 0
z80 0
z81 0
z82 0
z83 1
z84 1
z85 1
z86 1
z87 1
z88 0
z89 1
z90 0
z91 0
z92 0
z93 0
z94 0
z95 0
z96 0
z97 0
z98 1
z99 1
z100 1
z101 1
z102 1
z103 1
z104 0
z105 1
z106 1
z107 1
z108 0
z109 0
z110 0
z111 0
z112 0
z113 0
z114 0
z115 0
z116 0
z117 0
z118 0
z119 0
z120 0
z121 0
z122 0
z123 0
z124 1
z125 1
z126 1
z127 1
z128 0
z129 1
z130 0
z131 0
z132 0
z133 0
z134 0
z135 0
z136 0
z137 0
z138 0
z139 0
z140 0
z141 0
z142 0
z143 0
z144 0
z145 0
z146 0
z147 0
z148 1
z149 1
z150 1
z151 1
z152 0
z153 0
z154 0
z155 0
z156 1
z157 1
z158 1
z159 1
z160 1
z161 0
z162 0
z163 0
z164 0
z165 1
z166 1
z167 0
z168 0
z169 0
z170 0
z171 0
z172 0
z173 0
z174 0
z175 0
z176 0
z177 0
z178 0
z179 0
z180 1
z181 1
z182 0
z183 0
z184 0
z185 0
z186 0
z187 0
z188 0
z189 0
z190 0
z191 0
z192 0
z193 0
z194 0
z195 0
z196 0
z197 0
z198 0
z199 0
z200 0
z201 0
z202 0
z203 0
z204 0
z205 0
z206 0
z207 0
z208 0
z209 1
z210 1
z211 1
z212 1
z213 1
z214 1
z215 1
z216 0
z217 0
z218 0
z219 1
z220 1
z221 1
z222 1
z223 1
z224 1
z225 0
z226 0
z227 0
z228 0
z229 0
z230 0
z231 0
z232 0
z233 0
z234 0
z235 0
z236 0
z237 0
z238 0
z239 0
z240 0
z241 0
z242 0
z243 0
z244 0
z245 0
z246 0
z247 0
z248 0
z249 0
z250 0
z251 0
z252 0
z253 0
z254 1
z255 1
z256 1
z257 0
z258 0
z259 0
z260 0
z261 0
z262 0
z263 0
z264 0
z265 0
z266 0
z267 0
z268 0
z269 0
z270 0
z271 0
z272 0
z273 0
z274 0
z275 0
z276 0
z277 0
z278 0
z279 0
z280 0
z281 0
z282 0
z283 0
z284 0
z285 0
z286 0
z287 1
z288 1
z289 1
z290 1
z291 0
z292 0
z293 0
z294 1
z295 1
z296 0
z297 0
z298 1
z299 1
z300 1
z301 1
z302 1
z303 1
z304 1
z305 1
z306 0
z307 0
z308 0
z309 0
z310 1
z311 1
z312 1
z313 1
z314 1
z315 1
z316 1
z317 1
z318 1
z319 1
z320 1
z321 1
z322 1
z323 0
z324 0
z325 0
z326 0
z327 0
z328 1
z329 1
z330 1
z331 1
z332 0
z333 0
z334 0
z335 0
z336 0
z337 0
z338 0
z339 1
z340 1
z341 1
z342 0
z343 0
z344 0
z345 0
z346 0
z347 0
z348 0
z349 0
z350 0
z351 0
z352 0
z353 0
z354 0
z355 0
z356 0
z357 0
z358 0
z359 0
z360 0
z361 0
z362 0
z363 0
z364 0
z365 0
z366 1
z367 1
z368 1
z369 0
z370 0
z371 0
z372 0
z373 0
z374 0
z375 0
z376 0
z377 0
z378 0
z379 0
z380 0
z381 0
z382 0
z383 0
z384 0
z385 0
z386 0
z387 0
z388 0
z389 0
z390 0
z391 0
z392 0
z393 0
z394 0
z395 0
z396 0
z397 1
z398 0
z399 1
z400 1
z401 1
z402 1
z403 0
z404 0
z405 1
z406 1
z407 0
z408 0
z409 0
z410 1
z411 1
z412 1
z413 0
z414 0
z415 0
z416 0
z417 0
z418 0
z419 0
z420 0
z421 0
z422 0
z423 0
z424 0
z425 1
z426 1
z427 0
z428 0
z429 0
z430 0
z431 1
z432 0
z433 1
z434 1
z435 1
z436 1
z437 0
z438 0
z439 0
z440 0
z441 0
z442 0
z443 0
z444 0
z445 0
z446 0
z447 0
z448 0
z449 0
z450 0
z451 0
z452 0
